
  22   10
  10   10   10   10   10   10   10   10   10   10

   0   0   0   0   0   0   0   0   0   0   0   1 2 
   2  10  10  10  10  10  10  10  10  10  10   1 3 
   2  10  10  10  10  10  10  10  10  10  10   3 8 6 4 
   3  10  10  10  10  10  10  10  10  10  10   1 5 
   4  10  10  10  10  10  10  10  10  10  10   2 16 7 
   6  10  10  10  10  10  10  10  10  10  10   2 16 7 
   7  10  10  10  10  10  10  10  10  10  10   4 14 12 11 9 
   3  10  10  10  10  10  10  10  10  10  10   4 21 20 14 13 
   9  10  10  10  10  10  10  10  10  10  10   1 10 
   4  10  10  10  10  10  10  10  10  10  10   2 20 13 
   5  10  10  10  10  10  10  10  10  10  10   2 20 13 
   6  10  10  10  10  10  10  10  10  10  10   2 20 13 
  10  10  10  10  10  10  10  10  10  10  10   2 19 15 
   1  10  10  10  10  10  10  10  10  10  10   2 19 15 
   1  10  10  10  10  10  10  10  10  10  10   2 18 17 
   3  10  10  10  10  10  10  10  10  10  10   1 21 
   9  10  10  10  10  10  10  10  10  10  10   1 22
   8  10  10  10  10  10  10  10  10  10  10   1 22
   6  10  10  10  10  10  10  10  10  10  10   1 22
   3  10  10  10  10  10  10  10  10  10  10   1 22
   1  10  10  10  10  10  10  10  10  10  10   1 22
   0   0   0   0   0   0   0   0   0   0   0   0 
